problems/VanDerWaerdenNumbers/VanDerWaerden-models/noch/O2/lingeling/model_3-k3l4n35-solution000001.solution
language Essence 1.3

letting p be
        partition({1, 2, 4, 7, 8, 9, 16, 17, 18, 21, 22, 24, 28, 31, 33, 35}, {3, 5, 6, 13, 14, 15, 19, 23, 29, 30, 34},
                  {10, 11, 12, 20, 25, 26, 27, 32})
